W=5;
H=5;

MAX_TIME=8;
MAX_TRACKS=8;

TARGET=(1,5);

N_TRAINS=1;
TRAINS=[(5,1,RIGHT)];

N_INIT_POS=2;
INIT_POS=[
(1,5,STRAIGHT_RL),
(5,1,STRAIGHT_RL),
];
N_TUNNELS=1;
TUNNEL_PAIRS=[
  (3, 1, RIGHT, 3, 5, LEFT),
];

N_GATES=0;
GATES=[];
N_ACTIVATIONS=0;
ACTIVATIONS=[];

N_DSWITCHES=0;
DSWITCHES=[];
N_STATIONS=0;
STATIONS=[];
